c numero: 38
c nombre: n-40-d-0.5
c densidad: 0.5
p edges 40 414
e 1 4
e 1 7
e 1 10
e 1 11
e 1 12
e 1 13
e 1 14
e 1 18
e 1 22
e 1 23
e 1 25
e 1 26
e 1 28
e 1 32
e 1 34
e 1 36
e 1 37
e 1 38
e 1 39
e 2 5
e 2 8
e 2 9
e 2 10
e 2 11
e 2 13
e 2 15
e 2 17
e 2 18
e 2 20
e 2 22
e 2 24
e 2 28
e 2 32
e 2 33
e 2 34
e 2 36
e 2 40
e 3 6
e 3 7
e 3 9
e 3 11
e 3 13
e 3 14
e 3 15
e 3 17
e 3 21
e 3 22
e 3 26
e 3 27
e 3 32
e 3 33
e 3 35
e 3 36
e 3 40
e 4 5
e 4 9
e 4 10
e 4 12
e 4 14
e 4 15
e 4 17
e 4 18
e 4 20
e 4 21
e 4 22
e 4 24
e 4 25
e 4 28
e 4 29
e 4 30
e 4 32
e 4 34
e 4 36
e 4 38
e 4 39
e 4 40
e 5 6
e 5 9
e 5 10
e 5 12
e 5 14
e 5 15
e 5 18
e 5 20
e 5 21
e 5 22
e 5 23
e 5 26
e 5 27
e 5 29
e 5 31
e 5 32
e 5 37
e 5 39
e 5 40
e 6 7
e 6 8
e 6 11
e 6 14
e 6 15
e 6 17
e 6 18
e 6 20
e 6 21
e 6 22
e 6 25
e 6 27
e 6 29
e 6 33
e 6 35
e 6 36
e 6 37
e 6 38
e 6 39
e 6 40
e 7 8
e 7 11
e 7 15
e 7 16
e 7 20
e 7 21
e 7 22
e 7 23
e 7 25
e 7 26
e 7 27
e 7 31
e 7 33
e 7 38
e 7 39
e 8 10
e 8 13
e 8 15
e 8 17
e 8 20
e 8 22
e 8 23
e 8 24
e 8 25
e 8 26
e 8 27
e 8 28
e 8 29
e 8 30
e 8 32
e 8 35
e 8 38
e 9 10
e 9 11
e 9 12
e 9 13
e 9 15
e 9 16
e 9 17
e 9 18
e 9 20
e 9 21
e 9 24
e 9 25
e 9 30
e 9 31
e 9 32
e 9 33
e 9 34
e 9 35
e 9 37
e 9 38
e 9 39
e 10 12
e 10 13
e 10 14
e 10 15
e 10 18
e 10 20
e 10 23
e 10 24
e 10 25
e 10 27
e 10 29
e 10 30
e 10 33
e 10 35
e 10 38
e 10 39
e 11 12
e 11 14
e 11 16
e 11 18
e 11 20
e 11 21
e 11 22
e 11 25
e 11 26
e 11 27
e 11 28
e 11 31
e 11 33
e 11 34
e 11 36
e 11 37
e 11 38
e 12 13
e 12 16
e 12 17
e 12 22
e 12 24
e 12 27
e 12 28
e 12 29
e 12 30
e 12 31
e 12 35
e 12 36
e 12 38
e 13 14
e 13 15
e 13 16
e 13 18
e 13 19
e 13 20
e 13 21
e 13 22
e 13 24
e 13 25
e 13 26
e 13 27
e 13 28
e 13 29
e 13 30
e 13 31
e 13 32
e 13 33
e 13 34
e 13 35
e 13 37
e 13 39
e 14 15
e 14 16
e 14 18
e 14 20
e 14 22
e 14 23
e 14 24
e 14 27
e 14 28
e 14 29
e 14 30
e 14 32
e 14 33
e 14 35
e 14 39
e 14 40
e 15 16
e 15 17
e 15 20
e 15 21
e 15 25
e 15 27
e 15 28
e 15 29
e 15 31
e 15 34
e 15 36
e 15 37
e 15 38
e 15 39
e 15 40
e 16 18
e 16 20
e 16 21
e 16 22
e 16 24
e 16 25
e 16 26
e 16 28
e 16 34
e 16 35
e 16 38
e 16 40
e 17 20
e 17 21
e 17 24
e 17 25
e 17 27
e 17 30
e 17 31
e 17 32
e 17 33
e 17 35
e 17 39
e 17 40
e 18 20
e 18 22
e 18 23
e 18 24
e 18 25
e 18 31
e 18 33
e 18 36
e 18 37
e 18 39
e 19 20
e 19 22
e 19 24
e 19 27
e 19 28
e 19 29
e 19 31
e 19 33
e 19 34
e 19 38
e 20 21
e 20 25
e 20 26
e 20 27
e 20 28
e 20 29
e 20 31
e 20 32
e 20 33
e 20 35
e 20 37
e 20 39
e 21 23
e 21 24
e 21 26
e 21 28
e 21 29
e 21 33
e 21 34
e 21 39
e 22 23
e 22 25
e 22 26
e 22 29
e 22 31
e 22 32
e 22 38
e 22 39
e 23 25
e 23 26
e 23 28
e 23 29
e 23 31
e 23 32
e 23 34
e 23 35
e 23 37
e 23 38
e 23 40
e 24 29
e 24 31
e 24 34
e 24 38
e 25 27
e 25 28
e 25 30
e 25 31
e 25 32
e 25 34
e 25 35
e 25 36
e 25 39
e 25 40
e 26 27
e 26 29
e 26 30
e 26 32
e 26 37
e 27 28
e 27 30
e 27 31
e 27 33
e 27 34
e 27 35
e 27 36
e 27 37
e 28 30
e 28 37
e 28 39
e 28 40
e 29 31
e 29 32
e 29 33
e 29 35
e 29 36
e 29 37
e 29 38
e 29 40
e 30 32
e 30 35
e 30 36
e 30 37
e 30 38
e 30 40
e 31 36
e 31 39
e 32 35
e 32 36
e 32 37
e 32 40
e 33 34
e 33 35
e 33 36
e 33 39
e 33 40
e 34 35
e 34 38
e 35 38
e 35 40
e 36 38
e 36 39
e 37 39
e 38 40
